NAME: random-70-17515
TYPE: TSP
COMMENT: size=70 seed=17515
DIMENSION: 142
EDGE_WEIGHT_TYPE: EUC_2D
NODE_COORD_SECTION
+0 605 194
-0 605 194
+1 793 835
-1 679 340
+2 986 98
-2 701 216
+3 942 195
-3 713 826
+4 920 737
-4 995 190
+5 181 919
-5 330 343
+6 860 332
-6 315 79
+7 198 718
-7 187 587
+8 68 848
-8 26 392
+9 425 279
-9 559 309
+10 83 857
-10 316 875
+11 858 44
-11 659 600
+12 838 834
-12 540 346
+13 512 502
-13 96 698
+14 773 806
-14 122 225
+15 762 98
-15 561 571
+16 708 451
-16 488 37
+17 220 218
-17 927 199
+18 134 460
-18 609 512
+19 238 621
-19 836 505
+20 372 245
-20 716 489
+21 326 603
-21 657 925
+22 530 209
-22 472 190
+23 319 347
-23 889 891
+24 341 422
-24 671 235
+25 745 790
-25 155 839
+26 831 606
-26 217 489
+27 490 250
-27 384 383
+28 364 278
-28 257 514
+29 824 763
-29 374 432
+30 229 432
-30 266 488
+31 335 16
-31 926 256
+32 394 463
-32 985 235
+33 679 129
-33 226 38
+34 381 832
-34 817 945
+35 105 714
-35 290 37
+36 606 977
-36 99 267
+37 20 358
-37 411 519
+38 996 79
-38 433 258
+39 142 718
-39 186 835
+40 365 22
-40 449 877
+41 658 986
-41 210 571
+42 525 668
-42 231 646
+43 687 590
-43 792 344
+44 746 83
-44 593 527
+45 988 221
-45 384 839
+46 994 85
-46 199 182
+47 985 481
-47 822 453
+48 320 832
-48 889 898
+49 669 611
-49 667 12
+50 311 472
-50 287 688
+51 257 376
-51 154 525
+52 818 58
-52 448 314
+53 446 843
-53 355 167
+54 592 177
-54 738 777
+55 379 855
-55 20 413
+56 740 824
-56 92 403
+57 75 77
-57 325 964
+58 441 374
-58 936 119
+59 180 361
-59 485 977
+60 167 778
-60 689 774
+61 380 42
-61 287 190
+62 414 100
-62 190 865
+63 505 322
-63 535 783
+64 954 225
-64 500 307
+65 633 567
-65 203 843
+66 928 23
-66 795 120
+67 462 605
-67 236 763
+68 284 235
-68 879 277
+69 638 897
-69 97 423
+70 781 74
-70 37 468
PRECEDENCE_SECTION
+0 -0
+1 -1
+2 -2
+3 -3
+4 -4
+5 -5
+6 -6
+7 -7
+8 -8
+9 -9
+10 -10
+11 -11
+12 -12
+13 -13
+14 -14
+15 -15
+16 -16
+17 -17
+18 -18
+19 -19
+20 -20
+21 -21
+22 -22
+23 -23
+24 -24
+25 -25
+26 -26
+27 -27
+28 -28
+29 -29
+30 -30
+31 -31
+32 -32
+33 -33
+34 -34
+35 -35
+36 -36
+37 -37
+38 -38
+39 -39
+40 -40
+41 -41
+42 -42
+43 -43
+44 -44
+45 -45
+46 -46
+47 -47
+48 -48
+49 -49
+50 -50
+51 -51
+52 -52
+53 -53
+54 -54
+55 -55
+56 -56
+57 -57
+58 -58
+59 -59
+60 -60
+61 -61
+62 -62
+63 -63
+64 -64
+65 -65
+66 -66
+67 -67
+68 -68
+69 -69
+70 -70
EOF
